benchmark_num_str/p1_4_10-2.dzn
Alphabet = {A,C,G,T};
ns = 4;
nc = 10;
sl = 10;
neighbours = [| I(C),I(A),I(G),I(A),I(C),I(A),I(C),I(A),I(A),I(A) | I(C),I(A),I(A),I(A),I(A),I(A),I(A),I(A),I(A),I(A) | I(A),I(A),I(A),I(C),I(A),I(A),I(G),I(A),I(A),I(A) | I(A),I(A),I(A),I(C),I(A),I(A),I(G),I(A),I(C),I(A) |];
