benchmark_num_str/p1_4_10-2.txt
{
	"num_strings": 4,
	"alphabet": "ACGT",
	"strings": [
		"CAGACACAAA",
		"CAAAAAAAAA",
		"AAACAAGAAA",
		"AAACAAGACA"
	],
	"str_length":[10,10,10,10]
}